NAME : XML100_3325_13
DIMENSION : 101
NB_CLUSTERS : 7
CLUSTERING_ALG : KMedoids
CLUSTERING_PARAMS : k(6)
CLUSTERS
1 0
2 4 12 16 23 31 35 37 38 41 44 53 56 59 62 64 66 73 74 78 86 90 91 92 94 95
3 6 15 22 45 48 51 68 79 82 83 85 97 100
4 8 10 11 14 26 27 42 43 54 69 72 76 89 96
5 5 29 32 36 50 52 63 84
6 3 7 13 18 21 28 30 34 39 40 46 57 58 60 70 80 81 87 88
7 1 2 9 17 19 20 24 25 33 47 49 55 61 65 67 71 75 77 93 98 99
EOF